c read Graph
c width = 57
c time = 41 ms
c width = 9
c time = 60 ms
c width = 8
c time = 83 ms
c width = 7
c time = 1145 ms
c width = 7
c time = 5009 ms
s td 63 8 70
b 1 1 2 11
b 2 2 3 11 12
b 3 8 9 19 20
b 4 3 11 12 21
b 5 8 19 20 30
b 6 41 51 52 62
b 7 50 59 60 69
b 8 41 52 62 63
b 9 50 59 68 69
b 10 3 4 5 14
b 11 3 5 13 14 22 31
b 12 3 13 21 22 31
b 13 3 12 13 21 22
b 14 5 13 14 22 23 31
b 15 5 6 14 15 22 23 31
b 16 6 7 14 15 16 22 23 31
b 17 7 14 15 16 22 23 24 31
b 18 7 15 16 22 23 24 25 31
b 19 7 16 22 23 24 25 31 32
b 20 7 16 23 24 25 31 32 33
b 21 7 16 24 25 31 32 33 34
b 22 7 16 25 31 32 33 34 41
b 23 7 16 25 32 33 34 41 42
b 24 7 16 25 33 34 41 42 43
b 25 7 16 25 34 41 42 43 52
b 26 7 16 25 34 41 43 52 63
b 27 7 16 25 34 43 52 53 63
b 28 7 16 25 34 43 44 53 63
b 29 7 16 25 34 35 44 53 63
b 30 7 16 25 26 35 44 53 63
b 31 7 16 17 26 35 44 53 63
b 32 7 8 17 26 35 44 53 63
b 33 8 17 26 35 44 53 54 63
b 34 8 17 26 35 44 45 54 63
b 35 8 17 26 35 36 45 54 63
b 36 8 17 26 27 36 45 54 63
b 37 8 17 18 27 36 45 54 63
b 38 8 18 27 36 45 54 63 64
b 39 8 18 27 36 45 54 55 64
b 40 8 18 27 36 45 46 55 64
b 41 8 18 27 36 37 46 55 64
b 42 8 18 27 28 37 46 55 64
b 43 8 18 19 28 37 46 55 64
b 44 8 19 28 30 37 46 55 64
b 45 19 28 29 30 37 46 55 64
b 46 28 29 30 37 38 46 55 64
b 47 29 30 37 38 39 46 55 64
b 48 30 37 38 39 40 46 55 64
b 49 37 38 39 40 46 47 55 64
b 50 38 39 40 46 47 48 55 64
b 51 39 40 46 47 48 49 55 64
b 52 40 46 47 48 49 50 55 64
b 53 46 47 48 49 50 55 56 64
b 54 47 48 49 50 55 56 57 64
b 55 48 49 50 55 56 57 58 64
b 56 49 50 55 56 57 58 59 64
b 57 50 55 56 57 58 59 64 68
b 58 55 56 57 58 59 64 65 68
b 59 56 57 58 59 64 65 66 68
b 60 57 58 59 64 65 66 67 68
b 61 60 69 70
b 62 51 61 62
b 63 9 10 20
1 2
2 4
3 63
3 5
4 13
5 44
6 62
6 8
7 61
7 9
8 26
9 57
10 11
11 14
11 12
12 13
14 15
15 16
16 17
17 18
18 19
19 20
20 21
21 22
22 23
23 24
24 25
25 26
26 27
27 28
28 29
29 30
30 31
31 32
32 33
33 34
34 35
35 36
36 37
37 38
38 39
39 40
40 41
41 42
42 43
43 44
44 45
45 46
46 47
47 48
48 49
49 50
50 51
51 52
52 53
53 54
54 55
55 56
56 57
57 58
58 59
59 60
